10
0	122	101	589	185	910	509	71	954	808	
122	0	589	593	871	19	380	777	143	937	
101	589	0	977	683	714	345	87	768	726	
589	593	977	0	220	200	843	882	733	520	
185	871	683	220	0	12	658	160	315	161	
910	19	714	200	12	0	242	405	465	42	
509	380	345	843	658	242	0	294	740	936	
71	777	87	882	160	405	294	0	771	858	
954	143	768	733	315	465	740	771	0	474	
808	937	726	520	161	42	936	858	474	0	
